param n := 2;

param m := 5;

param K := 500;

param a :=
1 	 0.920207
2 	 0.227900
;
 param A :=
[1, *, *]:  1	2	:=
1	-0.825036	-0.371247	
2	-0.545381	-0.650468	

[2, *, *]:  1	2	:=
1	0.214188	0.632703	
2	-0.172827	-0.629739	

[3, *, *]:  1	2	:=
1	0.403753	0.148438	
2	-0.519289	-0.302025	

[4, *, *]:  1	2	:=
1	-0.886071	0.328205	
2	-0.542373	-0.005500	

[5, *, *]:  1	2	:=
1	0.038032	0.141432	
2	-0.650560	0.993507	
;